NAME          
ROWS
 N  OBJ
 L  c1
 L  c2
 L  c3
COLUMNS
    MARKER    'MARKER'                 'INTORG'
    x[1]      c1        122
    x[1]      c2        433
    x[1]      c3        72
    x[1]      OBJ       -430
    x[2]      c1        28
    x[2]      c2        293
    x[2]      c3        35
    x[2]      OBJ       -510
    x[3]      c1        470
    x[3]      c2        670
    x[3]      c3        511
    x[3]      OBJ       -310
    x[4]      c1        229
    x[4]      c2        157
    x[4]      c3        69
    x[4]      OBJ       -870
    x[5]      c1        541
    x[5]      c2        910
    x[5]      c3        178
    x[5]      OBJ       -685
    x[6]      c1        653
    x[6]      c2        368
    x[6]      c3        54
    x[6]      OBJ       -61
    x[7]      c1        207
    x[7]      c2        365
    x[7]      c3        763
    x[7]      OBJ       -659
    x[8]      c1        738
    x[8]      c2        574
    x[8]      c3        216
    x[8]      OBJ       -179
    x[9]      c1        199
    x[9]      c2        486
    x[9]      c3        949
    x[9]      OBJ       -736
    x[10]     c1        912
    x[10]     c2        940
    x[10]     c3        727
    x[10]     OBJ       -283
    x[11]     c1        108
    x[11]     c2        298
    x[11]     c3        971
    x[11]     OBJ       -608
    x[12]     c1        698
    x[12]     c2        75
    x[12]     c3        865
    x[12]     OBJ       -484
    x[13]     c1        543
    x[13]     c2        854
    x[13]     c3        657
    x[13]     OBJ       -337
    x[14]     c1        705
    x[14]     c2        541
    x[14]     c3        370
    x[14]     OBJ       -543
    x[15]     c1        547
    x[15]     c2        101
    x[15]     c3        578
    x[15]     OBJ       -220
    x[16]     c1        217
    x[16]     c2        822
    x[16]     c3        669
    x[16]     OBJ       -765
    x[17]     c1        697
    x[17]     c2        320
    x[17]     c3        275
    x[17]     OBJ       -260
    x[18]     c1        646
    x[18]     c2        661
    x[18]     c3        837
    x[18]     OBJ       -753
    x[19]     c1        593
    x[19]     c2        212
    x[19]     c3        612
    x[19]     OBJ       -866
    x[20]     c1        142
    x[20]     c2        468
    x[20]     c3        490
    x[20]     OBJ       -446
    x[21]     c1        654
    x[21]     c2        948
    x[21]     c3        543
    x[21]     OBJ       -949
    x[22]     c1        726
    x[22]     c2        750
    x[22]     c3        589
    x[22]     OBJ       -754
    x[23]     c1        581
    x[23]     c2        331
    x[23]     c3        780
    x[23]     OBJ       -939
    x[24]     c1        95
    x[24]     c2        927
    x[24]     c3        652
    x[24]     OBJ       -523
    x[25]     c1        797
    x[25]     c2        647
    x[25]     c3        201
    x[25]     OBJ       -163
    x[26]     c1        261
    x[26]     c2        326
    x[26]     c3        128
    x[26]     OBJ       -825
    x[27]     c1        70
    x[27]     c2        238
    x[27]     c3        912
    x[27]     OBJ       -784
    x[28]     c1        637
    x[28]     c2        76
    x[28]     c3        694
    x[28]     OBJ       -962
    x[29]     c1        846
    x[29]     c2        287
    x[29]     c3        142
    x[29]     OBJ       -406
    x[30]     c1        583
    x[30]     c2        938
    x[30]     c3        82
    x[30]     OBJ       -839
    x[31]     c1        770
    x[31]     c2        542
    x[31]     c3        450
    x[31]     OBJ       -218
    x[32]     c1        420
    x[32]     c2        132
    x[32]     c3        457
    x[32]     OBJ       -966
    x[33]     c1        871
    x[33]     c2        996
    x[33]     c3        469
    x[33]     OBJ       -776
    x[34]     c1        909
    x[34]     c2        388
    x[34]     c3        545
    x[34]     OBJ       -870
    x[35]     c1        407
    x[35]     c2        286
    x[35]     c3        837
    x[35]     OBJ       -983
    x[36]     c1        1
    x[36]     c2        277
    x[36]     c3        453
    x[36]     OBJ       -417
    x[37]     c1        497
    x[37]     c2        613
    x[37]     c3        10
    x[37]     OBJ       -226
    x[38]     c1        2
    x[38]     c2        978
    x[38]     c3        852
    x[38]     OBJ       -997
    x[39]     c1        764
    x[39]     c2        209
    x[39]     c3        12
    x[39]     OBJ       -59
    x[40]     c1        934
    x[40]     c2        149
    x[40]     c3        474
    x[40]     OBJ       -956
RHS
    rhs       c1        9910
    rhs       c2        9793
    rhs       c3        9590
RANGES
BOUNDS
 BV bounds    x[1]
 BV bounds    x[2]
 BV bounds    x[3]
 BV bounds    x[4]
 BV bounds    x[5]
 BV bounds    x[6]
 BV bounds    x[7]
 BV bounds    x[8]
 BV bounds    x[9]
 BV bounds    x[10]
 BV bounds    x[11]
 BV bounds    x[12]
 BV bounds    x[13]
 BV bounds    x[14]
 BV bounds    x[15]
 BV bounds    x[16]
 BV bounds    x[17]
 BV bounds    x[18]
 BV bounds    x[19]
 BV bounds    x[20]
 BV bounds    x[21]
 BV bounds    x[22]
 BV bounds    x[23]
 BV bounds    x[24]
 BV bounds    x[25]
 BV bounds    x[26]
 BV bounds    x[27]
 BV bounds    x[28]
 BV bounds    x[29]
 BV bounds    x[30]
 BV bounds    x[31]
 BV bounds    x[32]
 BV bounds    x[33]
 BV bounds    x[34]
 BV bounds    x[35]
 BV bounds    x[36]
 BV bounds    x[37]
 BV bounds    x[38]
 BV bounds    x[39]
 BV bounds    x[40]
ENDATA
